<?xml version = "1.0" encoding="UTF-8" standalone="yes"?>
<CPLEXSolution version="1.2">
 <header
   problemName="ILOG.CPLEX"
   solutionName="incumbent"
   solutionIndex="-1"
   objectiveValue="15.050000000000001"
   solutionTypeValue="3"
   solutionTypeString="primal"
   solutionStatusValue="101"
   solutionStatusString="integer optimal solution"
   solutionMethodString="mip"
   primalFeasible="1"
   dualFeasible="1"
   MIPNodes="0"
   MIPIterations="13"
   writeLevel="1"/>
 <quality
   epInt="1.0000000000000001e-05"
   epRHS="9.9999999999999995e-07"
   maxIntInfeas="0"
   maxPrimalInfeas="0"
   maxX="5"
   maxSlack="1950"/>
 <linearConstraints>
  <constraint index="0" slack="1950"/>
  <constraint index="1" slack="2"/>
  <constraint index="2" slack="122"/>
  <constraint index="3" slack="2"/>
  <constraint index="4" slack="15"/>
  <constraint index="5" slack="155"/>
  <constraint index="6" slack="0"/>
 </linearConstraints>
 <variables>
  <variable index="0" value="4"/>
  <variable index="1" value="0"/>
  <variable index="2" value="0"/>
  <variable index="3" value="1"/>
  <variable index="4" value="-0"/>
  <variable index="5" value="5"/>
  <variable index="6" value="0"/>
  <variable index="7" value="4"/>
  <variable index="8" value="0"/>
 </variables>
 <objectiveValues>
  <objective index="0" name="" value="15.050000000000001"/>
 </objectiveValues>
</CPLEXSolution>
